0 56 91 91 81 40 64 51 6 36
56 0 52 86 58 89 29 52 32 43
91 52 0 71 52 18 28 85 83 7
91 86 71 0 60 47 37 5 13 6
81 58 52 60 0 13 73 53 91 52
40 89 18 47 13 0 94 11 57 80
64 29 28 37 73 94 0 23 11 87
51 52 85 5 53 11 23 0 78 38
6 32 83 13 91 57 11 78 0 36
36 43 7 6 52 80 87 38 36 0
